
Welcome to IBM(R) ILOG(R) CPLEX(R) Interactive Optimizer 22.1.1.0
  with Simplex, Mixed Integer & Barrier Optimizers
5725-A06 5725-A29 5724-Y48 5724-Y49 5724-Y54 5724-Y55 5655-Y21
Copyright IBM Corp. 1988, 2022.  All Rights Reserved.

Type 'help' for a list of available commands.
Type 'help' followed by a command name for more
information on commands.

CPLEX> Selected objective sense:  MINIMIZE
Selected objective  name:  00000000
Selected RHS        name:  RHS1
Selected bound      name:  BOUND
Problem 'ee.mps' read.
Read time = 0.03 sec. (3.17 ticks)
CPLEX> New value for time limit in seconds: 7200
CPLEX> New value for parallel optimization mode: -1
CPLEX> New value for default parallel thread count: 40
CPLEX> New value for mixed integer optimality gap tolerance: 1e-13
CPLEX> Version identifier: 22.1.1.0 | 2022-11-28 | 9160aff4d
CPXPARAM_Threads                                 40
CPXPARAM_Parallel                                -1
CPXPARAM_TimeLimit                               7200
CPXPARAM_MIP_Tolerances_MIPGap                   1e-13
Found incumbent of value 0.000000 after 0.00 sec. (0.31 ticks)
Tried aggregator 2 times.
MIP Presolve eliminated 183 rows and 2745 columns.
MIP Presolve modified 6090 coefficients.
Aggregator did 713 substitutions.
Reduced MIP has 3636 rows, 7840 columns, and 28952 nonzeros.
Reduced MIP has 7840 binaries, 0 generals, 0 SOSs, and 0 indicators.
Presolve time = 0.07 sec. (69.14 ticks)
Probing fixed 137 vars, tightened 0 bounds.
Probing time = 0.08 sec. (39.98 ticks)
Tried aggregator 2 times.
Detecting symmetries...
MIP Presolve eliminated 40 rows and 188 columns.
MIP Presolve modified 12 coefficients.
Aggregator did 51 substitutions.
Reduced MIP has 3545 rows, 7587 columns, and 28057 nonzeros.
Reduced MIP has 7587 binaries, 0 generals, 0 SOSs, and 0 indicators.
Presolve time = 0.07 sec. (76.44 ticks)
Probing fixed 14 vars, tightened 0 bounds.
Probing time = 0.07 sec. (32.25 ticks)
Clique table members: 18336.
MIP emphasis: balance optimality and feasibility.
MIP search method: dynamic search.
Parallel mode: opportunistic, using up to 40 threads.
Root relaxation solution time = 0.14 sec. (113.94 ticks)

        Nodes                                         Cuts/
   Node  Left     Objective  IInf  Best Integer    Best Bound    ItCnt     Gap

*     0+    0                            0.0000  -1.54000e+13              --- 
*     0+    0                      -2.19000e+12  -1.54000e+13           603.20%
*     0+    0                      -2.40000e+12  -1.54000e+13           541.67%
*     0+    0                      -3.60000e+12  -1.54000e+13           327.78%
*     0+    0                      -4.80000e+12  -1.54000e+13           220.83%
*     0+    0                      -6.00000e+12  -1.54000e+13           156.67%
      0     0  -1.53900e+13    81  -6.00000e+12  -1.53900e+13     2632  156.50%
*     0+    0                      -1.05900e+13  -1.53900e+13            45.33%
*     0+    0                      -1.53900e+13  -1.53900e+13             0.00%
*     0+    0                      -1.53900e+13  -1.53900e+13             0.00%
      0     0  -1.53900e+13   179  -1.53900e+13      Cuts: 69     2899    0.00%
*     0+    0                      -1.53900e+13  -1.53900e+13             0.00%
      0     0  -1.53900e+13   188  -1.53900e+13      Cuts: 68     3411    0.00%
*     0+    0                      -1.53900e+13  -1.53900e+13             0.00%
*     0+    0                      -1.53900e+13  -1.53900e+13             0.00%
*     0+    0                      -1.53900e+13  -1.53900e+13             0.00%
Detecting symmetries...
      0     2  -1.53900e+13   164  -1.53900e+13  -1.53900e+13     3411    0.00%
Elapsed time = 2.90 sec. (1734.34 ticks, tree = 0.02 MB, solutions = 17)
     63    20  -1.53900e+13   104  -1.53900e+13  -1.53900e+13     7658    0.00%
    256    64  -1.53900e+13   185  -1.53900e+13  -1.53900e+13    69995    0.00%
    667    90  -1.53900e+13   303  -1.53900e+13  -1.53900e+13   113565    0.00%
   1069    64  -1.53900e+13   197  -1.53900e+13  -1.53900e+13    92867    0.00%
   1535   253  -1.53900e+13   130  -1.53900e+13  -1.53900e+13   173531    0.00%
   1905   318  -1.53900e+13    17  -1.53900e+13  -1.53900e+13   183505    0.00%
   2262   752  -1.53900e+13    46  -1.53900e+13  -1.53900e+13   269989    0.00%
   2930   503  -1.53900e+13    52  -1.53900e+13  -1.53900e+13   233719    0.00%
   3722   510        cutoff        -1.53900e+13  -1.53900e+13   234928    0.00%
   7021  1218  -1.53900e+13    55  -1.53900e+13  -1.53900e+13   342203    0.00%
Elapsed time = 9.18 sec. (4839.35 ticks, tree = 22.84 MB, solutions = 19)
   9463  1969  -1.53900e+13   121  -1.53900e+13  -1.53900e+13   660202    0.00%
  11327  1334  -1.53900e+13    18  -1.53900e+13  -1.53900e+13   935027    0.00%
  12690  1314  -1.53900e+13    25  -1.53900e+13  -1.53900e+13   927083    0.00%

Performing restart 1

Repeating presolve.
Tried aggregator 2 times.
MIP Presolve eliminated 51 rows and 53 columns.
MIP Presolve modified 1906 coefficients.
Aggregator did 13 substitutions.
Reduced MIP has 3404 rows, 7513 columns, and 27199 nonzeros.
Reduced MIP has 7513 binaries, 0 generals, 0 SOSs, and 0 indicators.
Presolve time = 0.05 sec. (47.75 ticks)
Tried aggregator 1 time.
Reduced MIP has 3404 rows, 7513 columns, and 27199 nonzeros.
Reduced MIP has 7513 binaries, 0 generals, 0 SOSs, and 0 indicators.
Presolve time = 0.02 sec. (21.30 ticks)
Represolve time = 0.21 sec. (131.01 ticks)
  12752     0  -1.53900e+13   368  -1.53900e+13      Cuts: 30  1038555    0.00%
  12752     0  -1.53900e+13   354  -1.53900e+13      Cuts: 36  1038880    0.00%
  12752     0  -1.53900e+13   351  -1.53900e+13      Cuts: 41  1039251    0.00%
  12752     0  -1.53900e+13   348  -1.53900e+13      Cuts: 26  1039790    0.00%
  12752     0  -1.53900e+13   418  -1.53900e+13      Cuts: 39  1040053    0.00%
  12752     0  -1.53900e+13   407  -1.53900e+13      Cuts: 46  1040355    0.00%
  12752     0  -1.53900e+13   409  -1.53900e+13      Cuts: 43  1040546    0.00%
  12752    13    infeasible        -1.53900e+13  -1.53900e+13  1068554    0.00%
  14241   115        cutoff        -1.53900e+13  -1.53900e+13  1100045    0.00%
  17055   252  -1.53900e+13   252  -1.53900e+13  -1.53900e+13  1232910    0.00%
  18962   271        cutoff        -1.53900e+13  -1.53900e+13  1280406    0.00%
  20382   160  -1.53900e+13    76  -1.53900e+13  -1.53900e+13  1325435    0.00%
  21745    60    infeasible        -1.53900e+13  -1.53900e+13  1438244    0.00%

GUB cover cuts applied:  2
Clique cuts applied:  8
Cover cuts applied:  455
Mixed integer rounding cuts applied:  14
Zero-half cuts applied:  71
Lift and project cuts applied:  2
Gomory fractional cuts applied:  27

Root node processing (before b&c):
  Real time             =    1.80 sec. (1720.69 ticks)
Parallel b&c, 40 threads:
  Real time             =   24.50 sec. (15104.60 ticks)
  Sync time (average)   =    4.68 sec.
  Wait time (average)   =    0.11 sec.
                          ------------
Total (root+branch&cut) =   26.30 sec. (16825.29 ticks)

Solution pool: 21 solutions saved.

MIP - Integer optimal solution:  Objective = -1.5389998788e+13
Solution time =   26.42 sec.  Iterations = 1507568  Nodes = 22117
Deterministic time = 16825.32 ticks  (636.78 ticks/sec)

CPLEX> Solution 'p22' written to file 'ee.sol'.
CPLEX> 